COMMENT: Europe-Subproblem of 666-city TSP (Groetschel)
37.44 38.43 41.11 37.23 36.32 36.43 37.13 37.53 38.21 39.28 41.23 41.38 40.24 41.39 43.15 43.22 38.54 39.34 42.3 44.5 43.36 43.18 43.42 43.42 42.42 45.5 45.26 45.45 45.1 48.24 48.05 47.13 47.23 49.3 48.52 49.15 47.19 48.41 48.35 49.36 50.38 50.5 50.38 51.03 51.13 51.26 51.55 52.22 52.05 53.13 50.23 50.43 50.5 51.29 51.27 51.3 52.3 53.25 53.3 53.23 53.5 54.59 55.57 55.53 56.28 57.1 60.09 62.01 51.54 52.4 53.2 54.35 55 64.09 64.11 76.34 70.4 68.26 65.01 61.3 60.27 60.1 63.25 60.23 58.58 59.55 57.43 55.36 58.25 59.2 57.38 56.09 55.24 55.4 53.04 53.33 54.2 54.05 51.57 52.24 52.07 52.31 50.47 50.44 50.56 51.12 51.17 51.28 51.28 51.32 51.31 51.19 50.58 51.29 51.19 50.5 51.03 49.14 50.07 49.25 49.48 49.27 49.03 48.46 49.01 48.08 46.12 46.31 46.57 47.33 47.23 47.16 47.48 48.18 48.13 47.05 45.03 45.28 45.27 45.27 45.4 44.25 44.29 43.46 43.55 39.2 41.54 40.51 41.27 41.07 40.28 38.11 37.3 38.07 35.54 53.24 54.23 53.08 52.25 51.46 52.15 53.09 51.06 50.16 50.03 51.15 49.45 50.05 49.5 49.12 48.09 48.43 47.3 47.32 46.05 46.15 45.45 46.47 47.1 45.48 45.39 44.26 44.11 46.03 45.2 45.48 43.31 43.52 44.5 42.38 41.59 41.2 42.41 42.09 43.13 42.3 39.36 40.38 38.15 37.58 35.2 35.1
-25.4 -9.08 -8.36 -5.59 -6.18 -4.25 -3.41 -4.46 -0.29 -0.22 2.11 -0.53 -3.41 -4.43 -2.58 -8.23 1.26 2.39 1.31 -0.34 1.26 5.24 7.15 7.23 9.27 1.16 4.24 4.51 5.43 -4.29 -1.41 -1.33 0.41 0.08 2.2 4.02 5.01 6.12 7.45 6.09 5.34 4.2 3.04 3.43 4.25 5.28 4.28 4.54 5.08 6.33 -4.1 -1.54 -0.08 -3.13 -2.35 -0.1 -1.5 -2.55 -2.15 -1.3 -1.35 -1.35 -3.13 -4.15 -3 -2.04 -1.09 -6.46 -8.28 -8.38 -6.15 -5.55 -7.19 -21.51 -51.44 -68.47 23.42 17.25 25.28 23.45 22.17 24.58 10.25 5.2 5.45 10.45 11.58 13 15.37 18.03 18.18 10.13 10.23 12.35 8.49 9.59 10.08 12.07 7.37 9.44 11.38 13.24 6.05 7.05 6.59 6.47 7.17 7.01 7.13 7.13 7.28 9.29 11.01 11.58 12.2 12.55 13.44 6.59 8.4 8.43 9.56 11.04 8.24 9.11 12.06 11.34 6.09 6.38 7.26 7.35 8.32 11.24 13.02 14.18 16.2 15.27 7.4 9.12 11 12.21 13.46 8.57 11.2 11.15 12.28 9 12.29 14.17 15.34 16.52 17.15 15.33 15.06 13.21 14.31 14.32 18.4 18 16.55 19.3 21 23.09 17 19 19.58 22.35 13.23 14.26 18.17 16.37 17.07 21.15 19.05 21.38 18.13 20.09 21.13 23.36 27.35 24.09 25.37 26.06 28.39 14.31 14.27 15.58 16.27 18.25 20.3 18.07 21.26 19.5 23.19 24.45 27.55 27.28 19.56 22.56 21.44 23.43 25.09 33.22
2894.97 2894.97 2894.97 2894.97 2894.97 2894.97 2894.97 2894.97 2894.97 2894.97 2894.97 2894.97 2894.97 2889.92 2889.92 2889.92 2889.92 2889.92 2889.92 2889.92 2889.92 2889.92 2889.92 2889.92 2889.92 2889.92 2889.92 2889.92 2889.92 2870.8 2870.8 2870.8 2870.8 2870.8 2870.8 2870.8 2870.8 2870.8 2870.8 2870.8 2870.8 2870.8 2870.8 2870.8 2870.8 2870.8 2870.8 2870.8 2870.8 2870.8 2870.8 2870.8 2870.8 2864.61 2864.61 2864.61 2864.61 2864.61 2859.7 2859.7 2859.7 2859.7 2859.7 2859.7 2859.7 2859.7 2859.7 2857.02 2857.02 2853.18 2853.18 2853.18 2849.63 2844.19 2844.19 2844.19 2844.19 2844.19 2844.19 2835.39 2835.39 2835.39 2835.35 2835.35 2835.35 2835.35 2835.35 2835.35 2835.35 2831.76 2831.76 2831.76 2831.76 2831.76 2831.76 2808.71 2808.71 2808.71 2808.71 2808.71 2808.71 2808.71 2805.23 2805.23 2805.23 2805.23 2805.23 2804.64 2804.64 2804.64 2804.64 2804.64 2804.64 2804.64 2804.64 2804.64 2787.91 2787.91 2787.91 2787.91 2787.91 2787.91 2787.91 2787.91 2787.91 2787.91 2787.91 2787.91 2787.91 2787.91 2787.91 2787.91 2787.91 2787.91 2787.91 2787.91 2787.91 2787.91 2787.91 2787.91 2787.91 2787.91 2787.91 2787.91 2787.91 2787.91 2787.91 2787.91 2787.91 2787.91 2787.91 2787.91 2787.91 2787.91 2787.91 2787.91 2787.91 2787.91 2787.91 2787.91 2787.91 2787.91 2787.91 2787.91 2787.91 2787.91 2787.91 2787.91 2787.91 2755.72 2755.72 2755.72 2755.72 2755.72 2755.72 2755.72 2755.72 2755.72 2755.72 2755.72 2755.72 2755.72 2755.72 2755.72 2755.72 2755.72 2755.72 2755.72 2755.72 2755.72 2755.72 2755.72 2754.99 2754.99 2754.99 2754.99 2754.99 2754.99 2754.99 2754.99 2754.99 2754.99 2754.99 2754.99 2754.9 2754.9 2754.9 2754.71 2754.71 2754.71 2754.71 2754.71 2754.71 2754.71 2754.71 2754.71 2754.71 2754.71 2754.71 2754.71 2754.71 2754.71 2754.71 2754.71 2742.73 2742.73 2742.73 2742.73 2742.73 2742.73 2742.73 2742.73 2742.73 2725.02 2725.02 2725.02 2725.02 2725.02 2725.02 2725.02 2725.02 2725.02 2725.02 2725.02 2725.02 2725.02 2725.02 2725.02 2725.02 2725.02 2725.02 2725.02 2725.02 2725.02 2725.02 2725.02 2725.02 2725.02 2725.02 2725.02 2725.02 2725.02 2725.02 2725.02 2725.02 2725.02 2725.02 2725.02 2725.02 2725.02 2725.02 2725.02 2725.02 2725.02 2725.02 2725.02 2725.02 2725.02 2725.02 2725.02 2725.02 2725.02 2725.02 2725.02 2725.02 2725.02 2725.02 2725.02 2725.02 2725.02 2725.02 2725.02 2725.02 2725.02 2725.02 2725.02 2725.02 2725.02 2725.02 2725.02 2725.02 2725.02 2725.02 2725.02 2725.02 2725.02 2725.02 2725.02 2725.02 2725.02 2725.02 2725.02 2725.02 2725.02 2725.02 2725.02 2725.02 2725.02 2725.02 2725.02 2725.02 2725.02 2725.02 2725.02 2719.01 2719.01 2719.01 2719.01 2719.01 2719.01 2719.01 2719.01 2719.01 2719.01 2719.01 2719.01 2719.01 2719.01 2719.01 2719.01 2719.01 2719.01 2719.01 2719.01 2719.01 2719.01 2719.01 2719.01 2719.01 2719.01 2695.22 2695.22 2695.22 2695.22 2695.22 2695.22 2695.22 2695.22 2695.22 2695.22 2695.22 2695.22 2695.22 2695.22 2695.22 2695.22 2695.22 2695.22 2695.22 2695.22 2687.09 2687.09 2687.09 2687.09 2687.09 2679.6 2679.6 2679.6 2679.6 2679.6 2679.6 2679.6 2679.6 2679.6 2679.6 2679.6 2679.6 2679.6 2679.6 2679.6 2679.6 2679.6 2679.6 2679.6 2679.6 2659.15 2659.15 2659.15 2659.15 2659.15 2659.15 2641.66 2641.66 2641.66 2641.66 2641.66 2641.66 2641.66 2641.66 2641.66 2641.66 2641.66 2641.66 2641.66 2641.66 2641.66 2641.66 2641.66 2641.66 2641.66 2641.66 2641.66 2641.66 2641.66 2641.66 2641.66 2641.66 2641.66 2641.66 2641.66 2641.66 2641.66 2641.66 2641.66 2641.66 2641.66 2641.66 2641.66 2641.66 2641.66 2641.66 2641.66 2641.66 2641.66 2641.66 2641.66 2641.66 2641.66 2641.66 2641.66 2641.66 2641.66 2641.66 2641.66 2641.66 2641.66 2641.66 2641.66 2641.66 2641.66 2641.66 2641.66 2641.66 2641.66 2641.66 2641.66 2641.66 2641.66 2641.66 2641.66 2641.66 2641.66 2641.66 2641.66 2641.66 2641.66 2641.66 2641.66 2641.66 2641.66 2641.66 2641.66 2641.66 2641.66 2641.66 2641.66 2641.66 2641.66 2641.66 2641.66 2641.66 2641.66 2641.66 2641.66 2641.66 2641.66 2641.66 2641.66 2641.66 2641.66 2641.66 2641.66 2641.66 2641.66 2641.66 2641.66 2641.66 2641.66 2641.66 2641.66 2641.66 2641.66 2641.66 2641.66 2641.66 2641.66 2641.66 2641.66 2641.66 2641.66 2641.66 2641.66 2641.66 2641.66 2641.66 2641.66 2641.66 2641.66 2641.66 2641.66 2641.66 2641.66 2638.74 2638.74 2630.84 2630.84 2630.84 2630.84 2630.84 2630.84 2630.84 2630.84 2630.84 2630.84 2630.84 2630.84 2630.84 2601.55 2601.55 2601.55 2598.58 2598.58 2598.58 2598.58 2598.58 2598.58 2598.58 2598.58 2598.58 2598.58 2598.58 2598.58 2598.58 2598.58 2598.58 2598.58 2598.58 2583.95 2583.95 2583.95 2583.95 2583.95 2583.95 2583.95 2583.95 2583.95 2583.95 2583.95 2583.95 2583.95 2583.95 2583.95 2583.95 2583.95 2583.95 2583.95 2583.95 2583.95 2583.95 2583.95 2583.95 2583.95 2583.95 2583.95 2583.95 2583.95 2583.95 2583.95 2583.95 2583.95 2583.95 2583.95 2583.95 2583.95 2583.95 2583.95 2583.95 2552.1 2552.1 2552.1 2552.1 2552.1 2552.1 2552.1 2552.1 2552.1 2552.1 2552.1 2552.1 2552.1 2552.1 2552.1 2552.1 2552.1 2552.1 2552.1 2552.1 2552.1 2552.1 2552.1 2552.1 2552.1 2552.1 2552.1 2552.1 2552.1 2552.1 2552.1 2552.1 2552.1 2552.1 2552.1 2552.1 2552.1 2552.1 2552.1 2552.1 2552.1 2552.1 2552.1 2552.1 2552.1 2551 2551 2548.09 2547.51 2547.51 2547.51 2547.51 2547.51 2547.51 2547.51 2547.51 2547.51 2547.51 2527.9 2525.05 2525.05 2525.05 2525.05 2525.05 2525.05 2525.05 2525.05 2525.05 2516.19 2516.19 2516.19 2516.19 2516.19 2516.19 2516.19 2516.19 2516.19 2516.19 2516.19 2516.19 2516.19 2516.19 2516.19 2516.19 2516.19 2516.19 2516.19 2516.19 2516.19 2516.19 2516.19 2516.19 2516.19 2516.19 2516.19 2516.19 2516.19 2516.19 2516.19 2516.19 2516.19 2514.76 2511.11 2501.93 2501.93 2501.93 2501.93 2501.93 2501.93 2501.93 2501.93 2501.93 2501.93 2501.93 2501.93 2501.93 2501.93 2485.69 2485.69 2474.12 2474.12 2474.12 2474.12 2474.12 2474.12 2474.12 2474.12 2474.12 2474.12 2474.12 2474.12 2474.12 2474.12 2474.12 2474.12 2474.12 2474.12 2474.12 2474.12 2474.12 2474.12 2474.12 2474.12 2474.12 2474.12 2474.12 2474.12 2474.12 2474.12 2474.12 2474.12 2474.12 2474.12 2474.12 2474.12 2474.12 2474.12 2474.12 2474.12 2474.12 2474.12 2474.12 2474.12 2474.12 2474.12 2474.12 2474.12 2474.12 2474.12 2474.12 2474.12 2474.12 2474.12 2474.12 2474.12 2474.12 2474.12 2474.12 2474.12 2474.12 2462.76 2462.76 2462.76 2435.07 2435.07 2435.07 2435.07 2435.07 2435.07 2435.07 2435.07 2435.07 2435.07 2435.07 2435.07 2435.07 2435.07 2435.07 2435.07 2435.07 2431.26 2431.26 2404.03 2404.03 2404.03 2404.03 2404.03 2404.03 2366.42 2366.42 2366.42 2366.42 2366.42 2366.42 2366.42 2366.42 2366.42 2366.42 2366.42 2366.42 2366.42 2366.42 2366.42 2366.42 2366.42 2366.42 2366.42 2366.42 2366.42 2366.42 2366.42 2366.42 2366.42 2366.42 2366.42 2366.42 2366.42 2366.42 2366.42 2366.42 2366.42 2366.42 2366.42 2366.42 2366.42 2366.42 2366.42 2366.42 2366.42 2366.42 2366.42 2366.42 2366.42 2366.42 2366.42 2366.42 2366.42 2366.42 2366.42 2366.42 2366.42 2366.42 2366.42 2366.42 2366.42 2366.42 2366.42 2366.42 2366.42 2366.42 2366.42 2366.42 2366.42 2366.42 2366.42 2366.42 2366.42 2366.42 2366.42 2366.42 2366.42 2366.42 2366.42 2366.42 2366.42 2366.42 2366.42 2366.42 2366.42 2366.42 2366.42 2366.42 2366.42 2366.42 2366.42 2366.42 2366.42 2366.42 2366.42 2366.42 2366.42 2366.42 2366.42 2366.42 2366.42 2366.42 2366.42 2366.42 2366.42 2366.42 2366.42 2366.42 2366.42 2366.42 2366.42 2366.42 2366.42 2366.42 2366.42 2366.42 2366.42 2366.42 2366.42 2366.42 2366.42 2366.42 2366.42 2366.42 2366.42 2366.42 2366.42 2366.42 2366.42 2366.42 2366.42 2366.42 2366.42 2366.42 2366.42 2366.42 2366.42 2366.42 2366.42 2366.42 2366.42 2366.42 2366.42 2366.42 2366.42 2366.42 2366.42 2366.42 2366.42 2366.42 2366.42 2366.42 2366.42 2366.42 2366.42 2366.42 2366.42 2366.42 2366.42 2366.42 2364.83 2364.83 2364.83 2358.64 2358.64 2358.64 2358.64 2358.64 2358.64 2358.64 2358.64 2358.64 2358.64 2358.64 2358.64 2358.64 2358.64 2358.64 2358.64 2353.9 2353.9 2353.9 2353.9 2353.9 2353.9 2353.9 2353.9 2353.9 2353.9 2353.9 2353.9 2353.9 2353.9 2353.9 2353.9 2353.9 2353.9 2353.9 2353.9 2353.9 2353.9 2353.9 2353.9 2353.9 2353.9 2353.9 2353.9 2353.9 2353.9 2353.9 2353.9 2353.9 2353.9 2353.9 2353.9 2353.9 2353.9 2353.9 2353.4 2353.4 2353.4 2353.4 2353.4 2353.4 2353.4 2353.4 2353.4 2353.4 2353.4 2353.4 2353.4 2353.4 2353.4 2353.4 2353.4 2353.4 2353.4 2353.4 2353.4 2353.4 2353.4 2353.4 2353.4 2353.4 2353.4 2353.4 2353.4 2353.4 2353.4 2353.4 2347.25 2347.25 2347.25 2336.6 2336.6 2336.6 2336.6 2336.6 2336.6 2336.6 2336.6 2336.6 2336.6 2336.6 2336.6 2336.6 2336.6 2336.6 2336.6 2336.6 2336.6 2336.6 2336.6 2336.6 2336.6 2336.6 2336.6 2336.6 2336.6 2335.11 2335.11 2326.48 2326.48 2326.48 2326.48 2326.48 2326.48 2326.48 2326.48 2326.48 2326.48 2326.48 2326.48 2326.48 2326.48 2326.48 2326.48 2326.48 2326.48 2318.47 2318.47 2318.47 2318.47 2318.47 2310.94 2310.94 2310.94 2310.94 2310.94 2310.94 2310.94 2310.94 2310.94 2310.94 2310.94 2310.94 2310.94 2310.94 2310.94 2310.94 2310.94 2310.94 2310.94 2310.94 2310.94 2310.94 2310.94 2310.94 2310.94 2310.94 2310.94 2310.94 2310.94 2310.94 2310.94 2310.94 2310.94 2310.94 2310.94 2310.94 2310.94 2310.94 2310.94 2310.94 2310.94 2310.94 2310.94 2310.94 2310.94 2310.94 2310.94 2310.94 2310.94 2310.94 2310.94 2310.94 2310.94 2310.94 2310.94 2310.94 2310.94 2310.94 2310.94 2310.94 2310.94 2310.94 2310.94 2310.94 2310.94 2310.94 2303.43 2303.43 2303.43 2303.43 2303.43 2303.43 2303.43 2303.43 2303.43 2303.43 2303.43 2303.43 2303.43 2303.43 2303.43 2303.43 2303.43 2303.43 2303.43 2303.43 2303.43 2270.46 2270.46 2270.46 2270.46 2270.46 2270.46 2270.46 2270.46 2270.46 2270.46 2270.46 2270.46 2270.46 2270.46 2270.46 2270.46 2270.46 2270.46 2270.46 2270.46 2270.46 2270.46 2270.46 2270.46 2270.46 2270.46 2270.46 2270.46 2270.46 2270.46 2270.46 2270.46 2270.46 2270.46 2270.46 2270.46 2270.46 2270.46 2270.46 2270.46 2270.46 2270.46 2270.46 2270.46 2270.46 2270.46 2270.46 2270.46 2270.46 2270.46 2270.46 2270.46 2270.46 2270.46 2270.46 2270.46 2270.46 2270.46 2270.46 2270.46 2270.46 2270.46 2241.64 2241.64 2241.64 2241.64 2241.64 2241.64 2241.64 2241.64 2241.64 2241.64 2241.64 2241.64 2241.64 2241.64 2241.64 2241.64 2241.64 2241.64 2241.64 2241.64 2241.64 2241.64 2241.64 2241.64 2241.64 2241.64 2241.64 2241.64 2241.64 2241.64 2241.64 2241.64 2241.64 2241.64 2241.64 2241.64 2241.64 2241.64 2241.64 2241.64 2241.64 2241.64 2241.64 2241.64 2241.64 2241.64 2241.64 2241.64 2241.64 2241.64 2241.64 2241.64 2228.16 2228.16 2228.16 2228.16 2228.16 2228.16 2223.73 2223.73 2223.73 2223.73 2223.73 2223.73 2223.73 2223.73 2223.73 2223.73 2223.73 2223.73 2223.73 2223.73 2223.73 2223.73 2223.73 2223.73 2223.73 2223.73 2223.73 2223.73 2223.73 2223.73 2223.73 2223.73 2223.73 2223.73 2223.73 2223.73 2223.73 2223.73 2223.73 2223.73 2223.73 2223.73 2223.73 2223.73 2223.73 2223.73 2223.73 2223.73 2223.73 2223.73 2223.73 2223.73 2223.73 2223.73 2223.73 2223.73 2223.73 2223.73 2223.73 2223.73 2223.73 2223.73 2223.73 2223.73 2223.73 2223.73 2223.73 2223.73 2223.73 2223.73 2223.73 2223.73 2223.73 2223.73 2223.73 2223.73 2223.73 2223.73 2223.73 2223.73 2223.73 2223.73 2223.73 2223.73 2223.73 2223.73 2223.73 2223.73 2223.73 2223.73 2223.73 2223.73 2223.73 2223.73 2223.73 2223.73 2223.73 2223.73 2223.73 2223.73 2223.73 2223.73 2223.73 2223.73 2223.73 2223.73 2223.73 2223.73 2223.73 2223.73 2223.73 2223.73 2217.26 2217.26 2217.26 2217.26 2217.26 2206.9 2206.9 2206.9 2206.9 2206.9 2206.9 2206.9 2206.9 2206.9 2206.9 2206.9 2206.9 2206.9 2206.9 2206.9 2206.9 2206.9 2206.9 2206.9 2183.48 2183.48 2183.48 2183.48 2183.48 2183.48 2183.48 2183.48 2183.48 2183.48 2183.48 2183.48 2183.48 2183.48 2183.48 2183.48 2183.48 2183.48 2183.48 2183.48 2183.48 2183.48 2183.48 2183.48 2183.48 2183.48 2183.48 2183.48 2183.48 2183.48 2183.48 2183.48 2183.48 2183.48 2183.48 2183.48 2183.48 2183.48 2183.48 2183.48 2183.48 2183.48 2183.48 2183.48 2183.48 2183.48 2183.48 2183.48 2181.13 2181.13 2181.13 2181.13 2181.13 2181.13 2181.13 2181.13 2181.13 2181.13 2181.13 2181.13 2181.13 2181.13 2181.13 2181.13 2181.13 2181.13 2181.13 2181.13 2181.13 2181.13 2181.13 2181.13 2174.32 2174.32 2174.32 2174.32 2174.32 2174.32 2174.32 2174.32 2174.32 2174.32 2174.32 2174.32 2174.32 2147.8 2147.8 2147.8 2147.8 2147.8 2147.8 2147.8 2147.8 2147.8 2147.8 2147.8 2147.8 2147.8 2147.8 2147.8 2147.8 2147.8 2147.8 2147.8 2147.8 2147.8 2147.8 2147.8 2147.8 2147.8 2147.8 2147.8 2147.8 2147.8 2147.8 2147.8 2144.25 2144.25 2144.25 2144.25 2144.25 2144.25 2144.25 2144.25 2144.25 2144.25 2132.03 2132.03 2132.03 2132.03 2132.03 2132.03 2132.03 2132.03 2132.03 2132.03 2132.03 2132.03 2132.03 2132.03 2132.03 2116.96 2116.96 2116.96 2116.96 2116.96 2116.96 2116.96 2116.96 2116.96 2116.96 2116.96 2116.96 2116.96 2116.96 2116.96 2116.96 2116.96 2116.96 2116.96 2116.96 2116.96 2116.96 2116.96 2116.96 2116.96 2116.96 2116.96 2116.96 2116.96 2116.96 2116.96 2116.96 2116.96 2116.96 2116.96 2116.96 2116.96 2116.96 2116.96 2116.96 2103.78 2103.78 2103.78 2103.78 2103.78 2103.78 2103.78 2103.78 2103.78 2103.78 2103.78 2103.78 2103.78 2103.78 2103.78 2103.78 2103.78 2103.78 2103.78 2103.78 2103.78 2103.78 2103.78 2103.78 2103.78 2103.78 2101 2101 2101 2097.58 2097.58 2097.58 2097.58 2097.58 2097.58 2097.58 2097.58 2097.58 2097.58 2097.58 2097.58 2097.58 2097.58 2097.58 2097.58 2097.58 2097.58 2097.58 2097.58 2097.58 2097.58 2097.58 2097.58 2097.58 2097.58 2097.58 2097.58 2097.58 2097.58 2097.58 2097.58 2097.58 2097.58 2097.58 2097.58 2097.58 2097.58 2097.58 2097.58 2097.58 2097.58 2097.58 2097.58 2097.58 2097.58 2097.58 2097.58 2097.58 2097.58 2097.58 2097.58 2092.2 2092.2 2092.2 2080.04 2080.04 2072.78 2072.78 2072.78 2072.78 2072.78 2072.78 2072.78 2072.78 2072.78 2072.78 2072.78 2072.78 2072.78 2072.78 2072.78 2072.78 2072.78 2072.78 2072.78 2072.78 2072.78 2072.78 2072.78 2072.78 2072.78 2072.78 2072.78 2072.78 2072.78 2072.78 2072.78 2072.78 2072.78 2072.78 2072.78 2072.78 2072.78 2072.78 2072.78 2072.78 2072.78 2072.78 2072.78 2072.78 2072.78 2072.78 2072.78 2072.78 2072.78 2072.78 2072.78 2072.78 2072.78 2072.78 2072.78 2072.78 2072.78 2072.78 2072.78 2072.78 2072.78 2072.78 2072.78 2072.78 2072.78 2072.78 2072.78 2072.78 2072.78 2072.78 2072.78 2072.78 2072.78 2072.78 2072.78 2072.78 2072.78 2072.78 2072.78 2072.78 2072.78 2072.78 2072.78 2072.78 2072.78 2072.78 2072.78 2072.78 2072.78 2072.78 2072.78 2072.78 2072.78 2072.78 2072.78 2072.78 2072.78 2072.78 2072.78 2072.78 2072.78 2072.78 2072.78 2072.78 2072.78 2072.78 2072.78 2072.78 2072.78 2072.78 2072.78 2072.78 2072.78 2072.78 2072.78 2072.78 2072.78 2072.78 2072.78 2072.78 2072.78 2072.78 2072.78 2072.78 2072.78 2072.78 2072.78 2072.78 2072.78 2072.78 2072.78 2072.78 2072.78 2072.78 2072.78 2072.78 2072.78 2072.78 2072.78 2072.78 2072.78 2072.78 2072.78 2072.78 2072.78 2070.32 2070.32 2070.32 2070.32 2070.32 2070.32 2070.32 2070.32 2070.32 2070.32 2070.32 2070.32 2070.32 2070.32 2070.32 2070.32 2070.32 2070.32 2070.32 2070.32 2070.32 2070.32 2070.32 2070.32 2070.32 2070.32 2070.32 2070.32 2070.32 2070.32 2070.32 2070.32 2070.32 2070.32 2052.36 2052.36 2052.36 2052.36 2052.36 2052.36 2052.36 2052.36 2052.36 2052.36 2048.15 2048.15 2048.15 2048.15 2048.15 2048.15 2048.15 2048.15 2048.15 2029.83 2029.83 2029.83 2029.83 2029.83 2029.83 2029.83 2029.83 2029.83 2029.83 2029.83 2029.83 2029.83 2021.18 2021.18 2021.18 2021.18 2021.18 2021.18 2021.18 2021.18 2021.18 2014.84 2014.84 2014.84 2014.84 2014.84 2014.84 2014.84 2014.84 2014.84 2014.84 2014.84 2014.84 2014.84 2008.45 2008.45 2008.45 2008.45 2008.45 2008.45 2008.45 2008.45 2008.45 2008.45 1996.33 1996.33 1996.33 1974.59 1974.59 1974.59 1974.59 1974.59 1974.59 1974.59 1974.59 1974.59 1974.59 1974.59 1974.59 1974.59 1974.59 1974.59 1974.59 1974.59 1974.59 1974.59 1974.59 1974.59 1974.59 1974.59 1974.59 1974.59 1974.59 1974.59 1974.59 1974.59 1974.59 1974.59 1974.59 1974.59 1974.59 1974.59
68 60 81 80 159 48 118 76 75 72 69 63 52 136 170 135 44 142 58 99 186 167 116 121 33 35 11 3 8 15 55 79 184 131 93 98 163 165 175 126 168 102 139 89 166 88 83 188 197 155 143 129 174 160 171 123 179 202 199 190 18 53 64 16 71 45 84 145 100 28 46 141 122 185 25 154 12 152 56 49 34 113 39 107 158 36 119 51 43 38 127 132 112 47 92 101 97 67 42 54 65 130 115 137 40 31 70 20 26 74 13 19 146 109 108 161 120 133 86 85 62 151 192 82 134 196 172 162 149 150 125 124 61 110 176 94 96 87 128 104 29 14 140 17 153 191 57 4 6 148 178 164 200 198 201 193 181 169 182 195 189 177 32 41 73 1 2 5 37 144 103 105 78 77 173 194 156 91 90 157 50 66 138 183 180 117 114 95 106 21 111 27 187 24 147 22 23 7 10 9 30 59
1 3 16 14 13 12 15 20 26 33 32 31 30 51 69 70 71 72 73 64 63 65 66 62 61 60 59 58 57 54 55 52 56 53 34 35 36 40 118 38 37 28 27 29 127 128 129 131 130 39 123 124 120 119 121 122 125 126 132 133 134 167 168 117 116 115 114 113 112 99 111 110 109 108 107 106 105 104 103 41 42 43 44 45 46 47 49 48 50 95 100 101 102 156 98 96 97 93 92 94 88 87 86 83 84 85 67 68 74 75 76 77 78 79 80 82 81 90 89 91 157 158 159 163 160 161 162 166 165 164 169 170 135 171 173 172 174 178 180 181 179 182 183 195 196 202 201 200 199 197 198 194 193 191 192 190 187 188 189 177 176 175 186 136 184 185 141 140 139 143 144 145 147 148 149 150 151 152 153 155 154 146 25 142 138 137 24 23 22 21 19 11 18 17 10 9 7 6 8 4 5 2
